NAME : XML100_1353_09
DIMENSION : 101
NB_CLUSTERS : 4
CLUSTERING_ALG : DBSCAN
CLUSTERING_PARAMS : eps(118), minSamples(3)
CLUSTERS
1 0
2 1 4 14 18 19 20 22 26 27 30 35 37 42 44 50 52 57 58 59 61 63 64 65 67 68 70 73 79 80 84 85 86 88 92 93 95
3 2 3 5 6 7 8 9 10 11 12 13 15 16 17 21 23 24 25 28 29 31 32 33 34 36 38 39 40 41 43 46 47 48 49 51 54 55 56 60 62 66 69 71 72 74 75 76 77 78 81 82 83 89 90 91 94 96 97 98 99 100
4 45 53 87
EOF